120
1000
200
200
200
200
200
200
199
199
199
198
198
198
197
197
197
196
195
195
195
195
195
194
194
194
193
193
193
192
192
191
191
191
191
190
190
190
189
188
188
188
187
187
187
186
185
185
185
184
184
183
183
183
182
182
182
181
181
180
180
180
180
180
179
179
178
176
176
175
175
175
174
174
173
173
172
172
172
170
169
169
169
168
167
167
166
165
165
165
165
164
164
164
162
162
160
159
159
159
159
158
158
158
158
157
157
156
156
156
155
155
154
154
153
153
153
153
153
152
151
151
